
   AbsCon 1.41 (January, 2014) - defaultConfiguration

   
   instance
        framework=CSP  name=Isomorphism-/cluster/gpg/ciaran/sip-benchmarks/benchmarks/meshes-CVIU11/patterns/pattern6-/cluster/gpg/ciaran/sip-benchmarks/benchmarks/meshes-CVIU11/targets/target345
        parameters=/cluster/gpg/ciaran/sip-benchmarks/benchmarks/meshes-CVIU11/patterns/pattern6,/cluster/gpg/ciaran/sip-benchmarks/benchmarks/meshes-CVIU11/targets/target345
      

   loading variables...
        nbVariables=199  nbDomainTypes=1  nbTotalValues=134922  domainSizes=(678:199)
          =>  wckTime=0.22  cpuTime=0.332  mem=10M753

   loading objectives...

   loading constraints...
        nbConstraints=540  nbSpecificConstraints=1  nbExtensionStructures=(1,shared:538)  nbConflictsStructures=(1,shared:538,unbuilt:1)
        degrees=(4:25)(5:32)(6:29)...(8:26)(9:1)(11:6)  arities=(2:539)(199:1)  types=(AllDifferent:1)(ConstraintHardExtensionV-Bits:539)
          =>  wckTime=0.432  cpuTime=0.529  mem=30M85

   INFO : <!-- Start saving the XML representation -->

   INFO : <!-- Stop saving the XML representation of target345.xml -->

   Solver SolverBacktrack being built... 
          =>  wckTime=0.937  cpuTime=0.967  mem=40M708

   
   search
        run=0  nbConstraintChecks=0  depth=(min:0,max:0,avg:1)  nbEffectivePropagations=8562  nbRevisions=50203  nbUselessRevisions=41831
        nbAssignments=669  nbFailedAssignments=669  nbBacktracks=1  nbVisitedNodes=1339  nbRestartNogoods=0
          =>  wckTime=11.199  cpuTime=12.06  mem=159M258

   
   global
        nbConstraintChecks=0  nbEffectivePropagations=8562  nbRevisions=50203  nbUselessRevisions=41831  nbRestartNogoods=0  solvingWckTime=11.199
        expiredTime=no  totalExploration=yes  nbFoundSolutions=0  Stop=FULL_EXPLORATION
          =>  wckTime=12.137  cpuTime=12.06  mem=159M258

s UNSATISFIABLE
d NODES 669

   totalWckTime=12.027  totalCpuTime=12.061
